(set-logic ALL)
(declare-const k Int)
(declare-fun s () (_ BitVec k))
(declare-fun t () (_ BitVec k))
(assert (distinct (bvneg (bvudiv (_ bv1 k) (bvudiv (_ bv0 k) t))) (bvudiv (bvlshr s s) t)))
(check-sat)
